p tw 117 21061 2 
1 3 
1 4 
1 5 
1 6 
1 7 
1 8 
1 9 
1 10 
1 11 
1 12 
1 13 
1 14 
1 15 
1 16 
1 17 
1 18 
1 19 
1 20 
1 21 
1 22 
1 23 
1 24 
1 25 
1 31 
1 41 
1 50 
1 60 
1 66 
1 80 
1 86 
1 91 
1 92 
1 93 
1 94 
1 95 
2 3 
2 4 
2 5 
2 6 
2 7 
2 8 
2 9 
2 10 
2 11 
2 12 
2 13 
2 14 
2 17 
2 26 
2 27 
2 28 
2 29 
2 30 
2 31 
2 32 
2 33 
2 34 
2 35 
2 36 
2 37 
2 56 
2 57 
2 58 
2 59 
2 60 
2 61 
2 62 
2 63 
2 64 
2 65 
3 4 
3 5 
3 6 
3 7 
3 8 
3 9 
3 10 
3 11 
3 12 
3 13 
3 15 
3 19 
3 26 
3 34 
3 37 
3 38 
3 39 
3 40 
3 41 
3 42 
3 43 
3 44 
3 45 
3 46 
3 52 
3 62 
3 71 
3 80 
3 89 
3 97 
3 106 
3 109 
3 110 
3 111 
4 5 
4 6 
4 7 
4 8 
4 9 
4 10 
4 11 
4 12 
4 13 
4 16 
4 20 
4 27 
4 29 
4 37 
4 40 
4 47 
4 48 
4 49 
4 50 
4 51 
4 52 
4 53 
4 54 
4 55 
4 58 
4 67 
4 79 
4 80 
4 81 
4 82 
4 83 
4 84 
4 85 
5 6 
5 7 
5 8 
5 9 
5 10 
5 11 
5 12 
5 13 
5 18 
5 23 
5 26 
5 28 
5 38 
5 47 
5 53 
5 56 
5 63 
5 66 
5 67 
5 68 
5 69 
5 70 
5 71 
5 72 
5 76 
5 84 
5 90 
5 93 
5 98 
5 104 
5 109 
5 112 
6 7 
6 8 
6 9 
6 10 
6 11 
6 12 
6 13 
6 17 
6 19 
6 29 
6 30 
6 39 
6 43 
6 48 
6 52 
6 57 
6 66 
6 69 
6 73 
6 74 
6 75 
6 76 
6 77 
6 78 
6 85 
6 92 
6 99 
6 107 
6 112 
6 113 
6 114 
7 8 
7 9 
7 10 
7 11 
7 12 
7 13 
7 21 
7 22 
7 30 
7 35 
7 39 
7 46 
7 49 
7 54 
7 58 
7 59 
7 68 
7 72 
7 77 
7 79 
7 86 
7 87 
7 88 
7 89 
7 90 
7 93 
7 100 
7 103 
7 107 
7 110 
8 9 
8 10 
8 11 
8 12 
8 13 
8 16 
8 24 
8 28 
8 35 
8 41 
8 42 
8 48 
8 61 
8 64 
8 68 
8 73 
8 81 
8 85 
8 86 
8 96 
8 97 
8 98 
8 99 
8 100 
8 101 
8 108 
8 109 
8 116 
8 117 
9 10 
9 11 
9 12 
9 13 
9 18 
9 25 
9 31 
9 36 
9 43 
9 44 
9 49 
9 55 
9 62 
9 65 
9 72 
9 74 
9 76 
9 79 
9 82 
9 94 
9 96 
9 99 
9 101 
9 102 
9 103 
9 104 
9 106 
9 117 
10 11 
10 12 
10 13 
10 22 
10 24 
10 32 
10 33 
10 44 
10 46 
10 51 
10 55 
10 56 
10 63 
10 69 
10 74 
10 75 
10 81 
10 83 
10 87 
10 88 
10 91 
10 95 
10 97 
10 101 
10 111 
10 112 
10 115 
11 12 
11 13 
11 23 
11 25 
11 27 
11 32 
11 40 
11 45 
11 50 
11 59 
11 64 
11 70 
11 71 
11 73 
11 78 
11 83 
11 88 
11 95 
11 100 
11 102 
11 104 
11 105 
11 106 
11 107 
11 113 
11 116 
12 13 
12 15 
12 20 
12 33 
12 34 
12 45 
12 47 
12 54 
12 61 
12 65 
12 67 
12 75 
12 78 
12 89 
12 90 
12 91 
12 92 
12 98 
12 102 
12 103 
12 105 
12 108 
12 114 
12 115 
12 117 
13 14 
13 21 
13 36 
13 38 
13 42 
13 51 
13 53 
13 57 
13 60 
13 70 
13 77 
13 82 
13 84 
13 87 
13 94 
13 96 
13 105 
13 108 
13 110 
13 111 
13 113 
13 114 
13 115 
13 116 
14 15 
14 16 
14 17 
14 18 
14 19 
14 20 
14 21 
14 22 
14 23 
14 24 
14 25 
14 26 
14 27 
14 28 
14 29 
14 30 
14 31 
14 32 
14 33 
14 34 
14 35 
14 36 
14 42 
14 53 
14 57 
14 70 
14 82 
14 87 
14 94 
14 108 
14 110 
14 113 
14 115 
15 16 
15 17 
15 18 
15 19 
15 20 
15 21 
15 22 
15 23 
15 24 
15 25 
15 26 
15 34 
15 37 
15 38 
15 39 
15 40 
15 41 
15 42 
15 43 
15 44 
15 45 
15 46 
15 54 
15 61 
15 67 
15 78 
15 90 
15 91 
15 102 
15 114 
15 115 
15 117 
16 17 
16 18 
16 19 
16 20 
16 21 
16 22 
16 23 
16 24 
16 25 
16 27 
16 28 
16 37 
16 42 
16 47 
16 48 
16 49 
16 50 
16 51 
16 52 
16 53 
16 54 
16 55 
16 61 
16 73 
16 81 
16 86 
16 96 
16 97 
16 98 
16 99 
16 100 
17 18 
17 19 
17 20 
17 21 
17 22 
17 23 
17 24 
17 25 
17 30 
17 37 
17 43 
17 52 
17 56 
17 57 
17 58 
17 59 
17 60 
17 61 
17 62 
17 63 
17 64 
17 65 
17 69 
17 85 
17 92 
17 99 
17 107 
17 112 
17 113 
17 114 
18 19 
18 20 
18 21 
18 22 
18 23 
18 24 
18 25 
18 28 
18 31 
18 38 
18 43 
18 47 
18 49 
18 56 
18 62 
18 66 
18 67 
18 68 
18 69 
18 70 
18 71 
18 72 
18 74 
18 82 
18 96 
18 101 
18 102 
18 103 
18 104 
19 20 
19 21 
19 22 
19 23 
19 24 
19 25 
19 29 
19 34 
19 39 
19 48 
19 52 
19 57 
19 62 
19 66 
19 71 
19 73 
19 74 
19 75 
19 76 
19 77 
19 78 
19 80 
19 89 
19 97 
19 106 
19 109 
19 110 
19 111 
20 21 
20 22 
20 23 
20 24 
20 25 
20 29 
20 33 
20 40 
20 45 
20 47 
20 58 
20 65 
20 67 
20 75 
20 79 
20 80 
20 81 
20 82 
20 83 
20 84 
20 85 
20 89 
20 92 
20 98 
20 103 
20 105 
20 108 
21 22 
21 23 
21 24 
21 25 
21 30 
21 36 
21 38 
21 39 
21 49 
21 51 
21 59 
21 60 
21 68 
21 77 
21 79 
21 84 
21 86 
21 87 
21 88 
21 89 
21 90 
21 96 
21 105 
21 111 
21 114 
21 116 
22 23 
22 24 
22 25 
22 32 
22 35 
22 44 
22 46 
22 51 
22 54 
22 58 
22 63 
22 69 
22 72 
22 75 
22 77 
22 83 
22 87 
22 91 
22 93 
22 97 
22 100 
22 101 
22 103 
22 107 
22 110 
23 24 
23 25 
23 26 
23 32 
23 40 
23 50 
23 53 
23 63 
23 64 
23 70 
23 73 
23 76 
23 84 
23 88 
23 90 
23 93 
23 98 
23 102 
23 104 
23 105 
23 106 
23 107 
23 109 
23 112 
24 25 
24 33 
24 35 
24 41 
24 46 
24 48 
24 55 
24 56 
24 64 
24 68 
24 74 
24 81 
24 85 
24 88 
24 95 
24 101 
24 108 
24 109 
24 111 
24 112 
24 115 
24 116 
24 117 
25 27 
25 36 
25 44 
25 45 
25 55 
25 59 
25 65 
25 71 
25 72 
25 76 
25 78 
25 79 
25 83 
25 94 
25 95 
25 99 
25 100 
25 104 
25 106 
25 113 
25 116 
25 117 
26 27 
26 28 
26 29 
26 30 
26 31 
26 32 
26 33 
26 34 
26 35 
26 36 
26 37 
26 38 
26 39 
26 40 
26 41 
26 42 
26 43 
26 44 
26 45 
26 46 
26 53 
26 63 
26 76 
26 84 
26 90 
26 93 
26 98 
26 104 
26 109 
26 112 
27 28 
27 29 
27 30 
27 31 
27 32 
27 33 
27 34 
27 35 
27 36 
27 37 
27 45 
27 47 
27 48 
27 49 
27 50 
27 51 
27 52 
27 53 
27 54 
27 55 
27 59 
27 71 
27 78 
27 83 
27 95 
27 100 
27 104 
27 113 
27 116 
28 29 
28 30 
28 31 
28 32 
28 33 
28 34 
28 35 
28 36 
28 38 
28 42 
28 47 
28 56 
28 61 
28 66 
28 67 
28 68 
28 69 
28 70 
28 71 
28 72 
28 73 
28 81 
28 86 
28 96 
28 97 
28 98 
28 99 
28 100 
29 30 
29 31 
29 32 
29 33 
29 34 
29 35 
29 36 
29 39 
29 40 
29 48 
29 57 
29 58 
29 66 
29 67 
29 73 
29 74 
29 75 
29 76 
29 77 
29 78 
29 79 
29 80 
29 81 
29 82 
29 83 
29 84 
29 85 
30 31 
30 32 
30 33 
30 34 
30 35 
30 36 
30 39 
30 43 
30 49 
30 52 
30 59 
30 68 
30 69 
30 79 
30 85 
30 86 
30 87 
30 88 
30 89 
30 90 
30 92 
30 99 
30 107 
30 112 
30 113 
30 114 
31 32 
31 33 
31 34 
31 35 
31 36 
31 41 
31 43 
31 49 
31 50 
31 60 
31 62 
31 66 
31 74 
31 80 
31 82 
31 86 
31 91 
31 92 
31 93 
31 94 
31 95 
31 96 
31 101 
31 102 
31 103 
31 104 
32 33 
32 34 
32 35 
32 36 
32 40 
32 44 
32 50 
32 51 
32 63 
32 64 
32 69 
32 70 
32 73 
32 75 
32 83 
32 87 
32 88 
32 91 
32 97 
32 101 
32 102 
32 105 
32 106 
32 107 
33 34 
33 35 
33 36 
33 45 
33 46 
33 47 
33 55 
33 56 
33 65 
33 74 
33 75 
33 81 
33 88 
33 89 
33 92 
33 95 
33 98 
33 103 
33 105 
33 108 
33 111 
33 112 
33 115 
34 35 
34 36 
34 52 
34 54 
34 61 
34 62 
34 67 
34 71 
34 78 
34 80 
34 89 
34 90 
34 91 
34 97 
34 102 
34 106 
34 109 
34 110 
34 111 
34 114 
34 115 
34 117 
35 36 
35 41 
35 46 
35 48 
35 54 
35 58 
35 64 
35 68 
35 72 
35 77 
35 85 
35 93 
35 100 
35 101 
35 103 
35 107 
35 108 
35 109 
35 110 
35 116 
35 117 
36 38 
36 44 
36 51 
36 55 
36 60 
36 65 
36 72 
36 76 
36 77 
36 79 
36 84 
36 94 
36 96 
36 99 
36 105 
36 106 
36 111 
36 114 
36 116 
36 117 
37 38 
37 39 
37 40 
37 41 
37 42 
37 43 
37 44 
37 45 
37 46 
37 47 
37 48 
37 49 
37 50 
37 51 
37 52 
37 53 
37 54 
37 55 
37 56 
37 57 
37 58 
37 59 
37 60 
37 61 
37 62 
37 63 
37 64 
37 65 
38 39 
38 40 
38 41 
38 42 
38 43 
38 44 
38 45 
38 46 
38 47 
38 51 
38 56 
38 60 
38 66 
38 67 
38 68 
38 69 
38 70 
38 71 
38 72 
38 77 
38 84 
38 96 
38 105 
38 111 
38 114 
38 116 
39 40 
39 41 
39 42 
39 43 
39 44 
39 45 
39 46 
39 48 
39 49 
39 57 
39 59 
39 66 
39 68 
39 73 
39 74 
39 75 
39 76 
39 77 
39 78 
39 79 
39 86 
39 87 
39 88 
39 89 
39 90 
40 41 
40 42 
40 43 
40 44 
40 45 
40 46 
40 50 
40 58 
40 64 
40 67 
40 70 
40 73 
40 79 
40 80 
40 81 
40 82 
40 83 
40 84 
40 85 
40 88 
40 102 
40 105 
40 106 
40 107 
41 42 
41 43 
41 44 
41 45 
41 46 
41 48 
41 50 
41 60 
41 64 
41 66 
41 68 
41 80 
41 85 
41 86 
41 91 
41 92 
41 93 
41 94 
41 95 
41 101 
41 108 
41 109 
41 116 
41 117 
42 43 
42 44 
42 45 
42 46 
42 53 
42 57 
42 61 
42 70 
42 73 
42 81 
42 82 
42 86 
42 87 
42 94 
42 96 
42 97 
42 98 
42 99 
42 100 
42 108 
42 110 
42 113 
42 115 
43 44 
43 45 
43 46 
43 49 
43 52 
43 62 
43 69 
43 74 
43 82 
43 85 
43 92 
43 96 
43 99 
43 101 
43 102 
43 103 
43 104 
43 107 
43 112 
43 113 
43 114 
44 45 
44 46 
44 51 
44 55 
44 63 
44 65 
44 69 
44 72 
44 75 
44 76 
44 79 
44 83 
44 87 
44 91 
44 94 
44 97 
44 99 
44 101 
44 106 
44 117 
45 46 
45 47 
45 59 
45 65 
45 71 
45 75 
45 78 
45 83 
45 89 
45 92 
45 95 
45 98 
45 100 
45 103 
45 104 
45 105 
45 108 
45 113 
45 116 
46 54 
46 55 
46 56 
46 58 
46 72 
46 74 
46 77 
46 81 
46 88 
46 93 
46 95 
46 100 
46 103 
46 107 
46 110 
46 111 
46 112 
46 115 
47 48 
47 49 
47 50 
47 51 
47 52 
47 53 
47 54 
47 55 
47 56 
47 65 
47 66 
47 67 
47 68 
47 69 
47 70 
47 71 
47 72 
47 75 
47 89 
47 92 
47 98 
47 103 
47 105 
47 108 
48 49 
48 50 
48 51 
48 52 
48 53 
48 54 
48 55 
48 57 
48 64 
48 66 
48 68 
48 73 
48 74 
48 75 
48 76 
48 77 
48 78 
48 85 
48 101 
48 108 
48 109 
48 116 
48 117 
49 50 
49 51 
49 52 
49 53 
49 54 
49 55 
49 59 
49 62 
49 68 
49 74 
49 79 
49 82 
49 86 
49 87 
49 88 
49 89 
49 90 
49 96 
49 101 
49 102 
49 103 
49 104 
50 51 
50 52 
50 53 
50 54 
50 55 
50 60 
50 64 
50 66 
50 70 
50 73 
50 80 
50 86 
50 88 
50 91 
50 92 
50 93 
50 94 
50 95 
50 102 
50 105 
50 106 
50 107 
51 52 
51 53 
51 54 
51 55 
51 60 
51 63 
51 69 
51 75 
51 77 
51 83 
51 84 
51 87 
51 91 
51 96 
51 97 
51 101 
51 105 
51 111 
51 114 
51 116 
52 53 
52 54 
52 55 
52 62 
52 69 
52 71 
52 80 
52 85 
52 89 
52 92 
52 97 
52 99 
52 106 
52 107 
52 109 
52 110 
52 111 
52 112 
52 113 
52 114 
53 54 
53 55 
53 57 
53 63 
53 70 
53 76 
53 82 
53 84 
53 87 
53 90 
53 93 
53 94 
53 98 
53 104 
53 108 
53 109 
53 110 
53 112 
53 113 
53 115 
54 55 
54 58 
54 61 
54 67 
54 72 
54 77 
54 78 
54 90 
54 91 
54 93 
54 100 
54 102 
54 103 
54 107 
54 110 
54 114 
54 115 
54 117 
55 56 
55 65 
55 72 
55 74 
55 76 
55 79 
55 81 
55 88 
55 94 
55 95 
55 99 
55 106 
55 111 
55 112 
55 115 
55 117 
56 57 
56 58 
56 59 
56 60 
56 61 
56 62 
56 63 
56 64 
56 65 
56 66 
56 67 
56 68 
56 69 
56 70 
56 71 
56 72 
56 74 
56 81 
56 88 
56 95 
56 111 
56 112 
56 115 
57 58 
57 59 
57 60 
57 61 
57 62 
57 63 
57 64 
57 65 
57 66 
57 70 
57 73 
57 74 
57 75 
57 76 
57 77 
57 78 
57 82 
57 87 
57 94 
57 108 
57 110 
57 113 
57 115 
58 59 
58 60 
58 61 
58 62 
58 63 
58 64 
58 65 
58 67 
58 72 
58 77 
58 79 
58 80 
58 81 
58 82 
58 83 
58 84 
58 85 
58 93 
58 100 
58 103 
58 107 
58 110 
59 60 
59 61 
59 62 
59 63 
59 64 
59 65 
59 68 
59 71 
59 78 
59 79 
59 83 
59 86 
59 87 
59 88 
59 89 
59 90 
59 95 
59 100 
59 104 
59 113 
59 116 
60 61 
60 62 
60 63 
60 64 
60 65 
60 66 
60 77 
60 80 
60 84 
60 86 
60 91 
60 92 
60 93 
60 94 
60 95 
60 96 
60 105 
60 111 
60 114 
60 116 
61 62 
61 63 
61 64 
61 65 
61 67 
61 73 
61 78 
61 81 
61 86 
61 90 
61 91 
61 96 
61 97 
61 98 
61 99 
61 100 
61 102 
61 114 
61 115 
61 117 
62 63 
62 64 
62 65 
62 71 
62 74 
62 80 
62 82 
62 89 
62 96 
62 97 
62 101 
62 102 
62 103 
62 104 
62 106 
62 109 
62 110 
62 111 
63 64 
63 65 
63 69 
63 75 
63 76 
63 83 
63 84 
63 87 
63 90 
63 91 
63 93 
63 97 
63 98 
63 101 
63 104 
63 109 
63 112 
64 65 
64 68 
64 70 
64 73 
64 85 
64 88 
64 101 
64 102 
64 105 
64 106 
64 107 
64 108 
64 109 
64 116 
64 117 
65 72 
65 75 
65 76 
65 79 
65 89 
65 92 
65 94 
65 98 
65 99 
65 103 
65 105 
65 106 
65 108 
65 117 
66 67 
66 68 
66 69 
66 70 
66 71 
66 72 
66 73 
66 74 
66 75 
66 76 
66 77 
66 78 
66 80 
66 86 
66 91 
66 92 
66 93 
66 94 
66 95 
67 68 
67 69 
67 70 
67 71 
67 72 
67 78 
67 79 
67 80 
67 81 
67 82 
67 83 
67 84 
67 85 
67 90 
67 91 
67 102 
67 114 
67 115 
67 117 
68 69 
68 70 
68 71 
68 72 
68 79 
68 85 
68 86 
68 87 
68 88 
68 89 
68 90 
68 101 
68 108 
68 109 
68 116 
68 117 
69 70 
69 71 
69 72 
69 75 
69 83 
69 85 
69 87 
69 91 
69 92 
69 97 
69 99 
69 101 
69 107 
69 112 
69 113 
69 114 
70 71 
70 72 
70 73 
70 82 
70 87 
70 88 
70 94 
70 102 
70 105 
70 106 
70 107 
70 108 
70 110 
70 113 
70 115 
71 72 
71 78 
71 80 
71 83 
71 89 
71 95 
71 97 
71 100 
71 104 
71 106 
71 109 
71 110 
71 111 
71 113 
71 116 
72 76 
72 77 
72 79 
72 93 
72 94 
72 99 
72 100 
72 103 
72 106 
72 107 
72 110 
72 117 
73 74 
73 75 
73 76 
73 77 
73 78 
73 81 
73 86 
73 88 
73 96 
73 97 
73 98 
73 99 
73 100 
73 102 
73 105 
73 106 
73 107 
74 75 
74 76 
74 77 
74 78 
74 81 
74 82 
74 88 
74 95 
74 96 
74 101 
74 102 
74 103 
74 104 
74 111 
74 112 
74 115 
75 76 
75 77 
75 78 
75 83 
75 87 
75 89 
75 91 
75 92 
75 97 
75 98 
75 101 
75 103 
75 105 
75 108 
76 77 
76 78 
76 79 
76 84 
76 90 
76 93 
76 94 
76 98 
76 99 
76 104 
76 106 
76 109 
76 112 
76 117 
77 78 
77 84 
77 93 
77 96 
77 100 
77 103 
77 105 
77 107 
77 110 
77 111 
77 114 
77 116 
78 83 
78 90 
78 91 
78 95 
78 100 
78 102 
78 104 
78 113 
78 114 
78 115 
78 116 
78 117 
79 80 
79 81 
79 82 
79 83 
79 84 
79 85 
79 86 
79 87 
79 88 
79 89 
79 90 
79 94 
79 99 
79 106 
79 117 
80 81 
80 82 
80 83 
80 84 
80 85 
80 86 
80 89 
80 91 
80 92 
80 93 
80 94 
80 95 
80 97 
80 106 
80 109 
80 110 
80 111 
81 82 
81 83 
81 84 
81 85 
81 86 
81 88 
81 95 
81 96 
81 97 
81 98 
81 99 
81 100 
81 111 
81 112 
81 115 
82 83 
82 84 
82 85 
82 87 
82 94 
82 96 
82 101 
82 102 
82 103 
82 104 
82 108 
82 110 
82 113 
82 115 
83 84 
83 85 
83 87 
83 91 
83 95 
83 97 
83 100 
83 101 
83 104 
83 113 
83 116 
84 85 
84 90 
84 93 
84 96 
84 98 
84 104 
84 105 
84 109 
84 111 
84 112 
84 114 
84 116 
85 92 
85 99 
85 101 
85 107 
85 108 
85 109 
85 112 
85 113 
85 114 
85 116 
85 117 
86 87 
86 88 
86 89 
86 90 
86 91 
86 92 
86 93 
86 94 
86 95 
86 96 
86 97 
86 98 
86 99 
86 100 
87 88 
87 89 
87 90 
87 91 
87 94 
87 97 
87 101 
87 108 
87 110 
87 113 
87 115 
88 89 
88 90 
88 95 
88 102 
88 105 
88 106 
88 107 
88 111 
88 112 
88 115 
89 90 
89 92 
89 97 
89 98 
89 103 
89 105 
89 106 
89 108 
89 109 
89 110 
89 111 
90 91 
90 93 
90 98 
90 102 
90 104 
90 109 
90 112 
90 114 
90 115 
90 117 
91 92 
91 93 
91 94 
91 95 
91 97 
91 101 
91 102 
91 114 
91 115 
91 117 
92 93 
92 94 
92 95 
92 98 
92 99 
92 103 
92 105 
92 107 
92 108 
92 112 
92 113 
92 114 
93 94 
93 95 
93 98 
93 100 
93 103 
93 104 
93 107 
93 109 
93 110 
93 112 
94 95 
94 99 
94 106 
94 108 
94 110 
94 113 
94 115 
94 117 
95 100 
95 104 
95 111 
95 112 
95 113 
95 115 
95 116 
96 97 
96 98 
96 99 
96 100 
96 101 
96 102 
96 103 
96 104 
96 105 
96 111 
96 114 
96 116 
97 98 
97 99 
97 100 
97 101 
97 106 
97 109 
97 110 
97 111 
98 99 
98 100 
98 103 
98 104 
98 105 
98 108 
98 109 
98 112 
99 100 
99 106 
99 107 
99 112 
99 113 
99 114 
99 117 
100 103 
100 104 
100 107 
100 110 
100 113 
100 116 
101 102 
101 103 
101 104 
101 108 
101 109 
101 116 
101 117 
102 103 
102 104 
102 105 
102 106 
102 107 
102 114 
102 115 
102 117 
103 104 
103 105 
103 107 
103 108 
103 110 
104 109 
104 112 
104 113 
104 116 
105 106 
105 107 
105 108 
105 111 
105 114 
105 116 
106 107 
106 109 
106 110 
106 111 
106 117 
107 110 
107 112 
107 113 
107 114 
108 109 
108 110 
108 113 
108 115 
108 116 
108 117 
109 110 
109 111 
109 112 
109 116 
109 117 
110 111 
110 113 
110 115 
111 112 
111 114 
111 115 
111 116 
112 113 
112 114 
112 115 
113 114 
113 115 
113 116 
114 115 
114 116 
114 117 
115 117 
116 117 
